c https://steinlib.zib.de/showset.php?ES60FST
p edge 123 159
e 6 61
e 16 62
e 16 58
e 58 62
e 58 61
e 12 63
e 12 62
e 63 64
e 64 65
e 65 66
e 5 65
e 56 66
e 56 73
e 56 63
e 56 64
e 14 37
e 37 68
e 34 67
e 34 61
e 43 67
e 44 68
e 68 69
e 69 70
e 70 71
e 71 72
e 3 75
e 3 71
e 3 67
e 30 69
e 30 70
e 17 72
e 17 76
e 17 30
e 72 74
e 73 89
e 40 80
e 40 73
e 40 66
e 74 75
e 55 78
e 55 75
e 76 99
e 41 77
e 41 76
e 41 74
e 77 78
e 77 81
e 78 79
e 78 83
e 9 84
e 9 79
e 24 88
e 80 90
e 32 94
e 32 80
e 81 82
e 82 83
e 82 100
e 26 84
e 26 85
e 26 83
e 26 79
e 84 86
e 85 86
e 85 91
e 86 87
e 86 91
e 87 88
e 59 89
e 59 92
e 59 88
e 89 90
e 89 96
e 49 92
e 49 91
e 49 87
e 92 96
e 93 95
e 2 93
e 94 98
e 13 95
e 13 94
e 13 93
e 96 97
e 36 98
e 36 97
e 36 90
e 33 99
e 33 45
e 51 98
e 35 100
e 35 81
e 100 103
e 23 102
e 23 101
e 23 35
e 45 101
e 45 105
e 45 99
e 47 104
e 47 97
e 102 103
e 102 110
e 102 107
e 60 104
e 60 103
e 105 106
e 105 113
e 106 111
e 53 107
e 53 108
e 53 106
e 53 101
e 107 109
e 108 109
e 108 112
e 109 110
e 52 110
e 52 103
e 111 112
e 25 112
e 25 109
e 29 113
e 29 111
e 54 95
e 11 114
e 11 113
e 15 22
e 15 54
e 22 116
e 7 114
e 7 115
e 20 114
e 10 48
e 10 104
e 46 115
e 39 116
e 39 119
e 116 117
e 1 118
e 1 115
e 117 120
e 8 117
e 57 118
e 18 120
e 18 119
e 48 121
e 27 118
e 19 57
e 31 38
e 31 120
e 121 123
e 28 122
e 28 121
e 4 122
e 4 119
e 42 123
e 21 123
e 50 122
